p cnf 10 50
-4 -7 2 0
-3 8 -5 0
-10 -9 7 0
10 9 3 0
6 -4 5 0
-2 10 4 0
7 -3 6 0
-8 6 2 0
9 5 3 0
-2 -8 -5 0
8 9 10 0
3 -4 6 0
-5 -8 10 0
1 7 9 0
6 -1 5 0
8 1 -6 0
-6 -4 -5 0
3 -9 10 0
-1 -9 -4 0
-7 -2 5 0
-6 2 3 0
-10 -2 9 0
7 -2 8 0
-6 -1 7 0
-10 -8 -2 0
6 -3 7 0
2 -9 -3 0
8 -2 4 0
2 -3 -5 0
9 -10 -1 0
-9 -4 -5 0
2 8 10 0
3 6 -7 0
-4 10 -9 0
-7 8 2 0
-9 5 -3 0
9 7 3 0
-5 -7 4 0
-1 -4 -3 0
5 -3 8 0
-6 2 1 0
6 4 9 0
-6 -9 -7 0
7 -1 -2 0
-8 2 -4 0
-3 -5 7 0
10 -2 3 0
9 7 10 0
-3 1 -8 0
-10 -2 -5 0